ClBrPt2                                 
   1.00000000000000     
     3.6005755281087386   -0.0364806294113568    0.0000000000000000
    -1.7869114962153896    3.1711453402255523    0.0000000000000000
     0.0000000000000000    0.0000000000000000   20.0000000000000000
   Cl   Br   Pt
     1     1     2
Direct
 -0.0016615288313206  0.4981854393114494  0.1680421294724585
  0.0021088658920379  0.5021476237637457  0.3860755370297981
  0.3339142964113448  0.1672117907632390  0.3105393083744719
  0.6657677625119632  0.8322987869595212  0.2355763209232811
 
  0.00000000E+00  0.00000000E+00  0.00000000E+00
  0.00000000E+00  0.00000000E+00  0.00000000E+00
  0.00000000E+00  0.00000000E+00  0.00000000E+00
  0.00000000E+00  0.00000000E+00  0.00000000E+00
