ClBrPt2                                 
   1.00000000000000     
     3.6307294907092431   -0.0364433516954215    0.0000000000000000
    -1.7838576899133594    3.1995839557502577    0.0000000000000000
     0.0000000000000000    0.0000000000000000   20.0000000000000000
   Cl   Br   Pt
     1     1     2
Direct
 -0.0011106389845655  0.4977261715356762  0.1687281620674006
  0.0014423283903688  0.5027195965581018  0.3853603915415859
  0.3336532230811875  0.1671914906752211  0.3102740581489050
  0.6661444834970346  0.8322063820289564  0.2358706840421181
 
  0.00000000E+00  0.00000000E+00  0.00000000E+00
  0.00000000E+00  0.00000000E+00  0.00000000E+00
  0.00000000E+00  0.00000000E+00  0.00000000E+00
  0.00000000E+00  0.00000000E+00  0.00000000E+00
