ClBrPt2                                 
   1.00000000000000     
     3.6187602529981766   -0.0364813852453997    0.0000000000000000
    -1.7869114962153896    3.1712110424801945    0.0000000000000000
     0.0000000000000000    0.0000000000000000   20.0000000000000000
   Cl   Br   Pt
     1     1     2
Direct
 -0.0003101780679992  0.4996265784688455  0.1682531390269734
  0.0004668558674929  0.5003856714090664  0.3858278806857515
  0.3336198653035566  0.1668788412122569  0.3105084844456377
  0.6663528528809750  0.8329525497077866  0.2356437916416471
 
  0.00000000E+00  0.00000000E+00  0.00000000E+00
  0.00000000E+00  0.00000000E+00  0.00000000E+00
  0.00000000E+00  0.00000000E+00  0.00000000E+00
  0.00000000E+00  0.00000000E+00  0.00000000E+00
