ClBrPt2                                 
   1.00000000000000     
     3.6187602529981765   -0.0364433516954215    0.0000000000000000
    -1.7869114962153896    3.1679049066834235    0.0000000000000000
     0.0000000000000000    0.0000000000000000   20.0000000000000000
   Cl   Br   Pt
     1     1     2
Direct
  0.0000328409254955  0.4999617985016559  0.1683462568869497
  0.0000322101657906  0.4999599402237822  0.3857238354195923
  0.3333654212279837  0.1666274209802427  0.3104867530450063
  0.6666989236647556  0.8332944810922744  0.2356764504484684
 
  0.00000000E+00  0.00000000E+00  0.00000000E+00
  0.00000000E+00  0.00000000E+00  0.00000000E+00
  0.00000000E+00  0.00000000E+00  0.00000000E+00
  0.00000000E+00  0.00000000E+00  0.00000000E+00
