ClBrPt2                                 
   1.00000000000000     
     3.6555280092046245   -0.0366290279482198    0.0000000000000000
    -1.7960412486094459    3.1840949458071406    0.0000000000000000
     0.0000000000000000    0.0000000000000000   20.0000000000000000
   Cl   Br   Pt
     1     1     2
Direct
  0.0000326015229182  0.4999607342904759  0.1695636601479298
  0.0000322939212677  0.4999608325887642  0.3846370370922246
  0.3333655416842276  0.1666277110831104  0.3101065494963752
  0.6666989588556119  0.8332943628356049  0.2359260490634801
 
  0.00000000E+00  0.00000000E+00  0.00000000E+00
  0.00000000E+00  0.00000000E+00  0.00000000E+00
  0.00000000E+00  0.00000000E+00  0.00000000E+00
  0.00000000E+00  0.00000000E+00  0.00000000E+00
