ClBrPt2                                 
   1.00000000000000     
     3.6189727291125782   -0.0366290279482198    0.0000000000000000
    -1.7960412486094459    3.1522539963490690    0.0000000000000000
     0.0000000000000000    0.0000000000000000   20.0000000000000000
   Cl   Br   Pt
     1     1     2
Direct
 -0.0017709804121484  0.4999891181793045  0.1680393969758229
  0.0021217443518092  0.4999279725974450  0.3862682552461578
  0.3338547449441011  0.1666204762406145  0.3104962249154671
  0.6659238871002634  0.8333060737805916  0.2354294186625618
 
  0.00000000E+00  0.00000000E+00  0.00000000E+00
  0.00000000E+00  0.00000000E+00  0.00000000E+00
  0.00000000E+00  0.00000000E+00  0.00000000E+00
  0.00000000E+00  0.00000000E+00  0.00000000E+00
