ClBrPt2                                 
   1.00000000000000     
     3.6298855116733555   -0.0364433516954215    0.0000000000000000
    -1.7834430243490016    3.1837444312168408    0.0000000000000000
     0.0000000000000000    0.0000000000000000   20.0000000000000000
   Cl   Br   Pt
     1     1     2
Direct
 -0.0002860798158823  0.4993372994778756  0.1684764192276078
  0.0004419077864856  0.5007627125999650  0.3855778472863892
  0.3335242951535616  0.1669377107444266  0.3104158639953974
  0.6664492728598604  0.8328059179756881  0.2357631652906151
 
  0.00000000E+00  0.00000000E+00  0.00000000E+00
  0.00000000E+00  0.00000000E+00  0.00000000E+00
  0.00000000E+00  0.00000000E+00  0.00000000E+00
  0.00000000E+00  0.00000000E+00  0.00000000E+00
