ClBrPt2                                 
   1.00000000000000     
     3.6372503691586013   -0.0366290279482198    0.0000000000000000
    -1.7960412486094459    3.1681744710781050    0.0000000000000000
     0.0000000000000000    0.0000000000000000   20.0000000000000000
   Cl   Br   Pt
     1     1     2
Direct
 -0.0008193383908373  0.4999772908439947  0.1688141966764033
  0.0010390890040878  0.4999408374039949  0.3854384925821114
  0.3335924955535697  0.1666236382814695  0.3103002616223287
  0.6663171498172054  0.8333018742684962  0.2356803449191661
 
  0.00000000E+00  0.00000000E+00  0.00000000E+00
  0.00000000E+00  0.00000000E+00  0.00000000E+00
  0.00000000E+00  0.00000000E+00  0.00000000E+00
  0.00000000E+00  0.00000000E+00  0.00000000E+00
