ClBrPt2                                 
   1.00000000000000     
     3.6407203313409058   -0.0364433516954215    0.0000000000000000
    -1.7887664108563806    3.1520653821500062    0.0000000000000000
     0.0000000000000000    0.0000000000000000   20.0000000000000000
   Cl   Br   Pt
     1     1     2
Direct
  0.0002074572082614  0.5003051536668188  0.1682537533296329
 -0.0001894306225834  0.4995240448315449  0.3858277733741083
  0.3332355829676312  0.1663713286752100  0.3105083538359042
  0.6668757864307163  0.8336431136243817  0.2356434152603642
 
  0.00000000E+00  0.00000000E+00  0.00000000E+00
  0.00000000E+00  0.00000000E+00  0.00000000E+00
  0.00000000E+00  0.00000000E+00  0.00000000E+00
  0.00000000E+00  0.00000000E+00  0.00000000E+00
