ClBrPt2                                 
   1.00000000000000     
     3.6418106003890549   -0.0364433516954215    0.0000000000000000
    -1.7893020841502993    3.1362258576165893    0.0000000000000000
     0.0000000000000000    0.0000000000000000   20.0000000000000000
   Cl   Br   Pt
     1     1     2
Direct
  0.0009139313827151  0.5016917912404664  0.1680494365710553
 -0.0010514975289089  0.4978322499777816  0.3860596221495429
  0.3330720479963433  0.1660516714523716  0.3105298821905004
  0.6671949141338759  0.8342679281273357  0.2355943548889110
 
  0.00000000E+00  0.00000000E+00  0.00000000E+00
  0.00000000E+00  0.00000000E+00  0.00000000E+00
  0.00000000E+00  0.00000000E+00  0.00000000E+00
  0.00000000E+00  0.00000000E+00  0.00000000E+00
