ClBrPt2                                 
   1.00000000000000     
     3.6537530234653781   -0.0364433516954215    0.0000000000000000
    -1.7951696607063086    3.1045468085497552    0.0000000000000000
     0.0000000000000000    0.0000000000000000   20.0000000000000000
   Cl   Br   Pt
     1     1     2
Direct
  0.0039856129511744  0.5077252428923084  0.1672665085424942
 -0.0046226315148680  0.4908182812828885  0.3868553234812323
  0.3322669719781559  0.1644684026619477  0.3107712724722257
  0.6684994425695635  0.8368317139608108  0.2353401913040575
 
  0.00000000E+00  0.00000000E+00  0.00000000E+00
  0.00000000E+00  0.00000000E+00  0.00000000E+00
  0.00000000E+00  0.00000000E+00  0.00000000E+00
  0.00000000E+00  0.00000000E+00  0.00000000E+00
