PREC        = Accurate
LREAL       = .FALSE.
LZEROSTRESS = .FALSE. .FALSE. .TRUE.
ENCUT       = 300
ISMEAR      = 0
SIGMA       = 0.1
ALGO        = Normal
ISIF        = 3
IBRION      = 1
ISYM        = -1
SYMPREC     = 1.0e-09
NSW         = 100
EDIFF       = 0.5e-04
EDIFG       = -1.0e-02
IVDW        = 11
LVDWSCS     = .FALSE.
LHFCALC     = .FALSE.
PRECFOCK    = N
AEXX        = 0
HFSCREEN    = 0.0
LDIPOL      = .TRUE.
IDIPOL      = 3
NPAR        = 2
KPAR        = 4
