ClBrPt2                                 
   1.00000000000000     
     3.6332248585885147   -0.0364063898195415    0.0000000000000000
    -1.7850840080312806    3.1646631039888269    0.0000000000000000
     0.0000000000000000    0.0000000000000000   20.0000000000000000
   Cl   Br   Pt
     1     1     2
Direct
  0.0000329901921718  0.4999617693757712  0.1683759183222840
  0.0000321717866617  0.4999599158389881  0.3856882421641980
  0.3333654419694084  0.1666275485426363  0.3104302939781271
  0.6666987920357835  0.8332944070405599  0.2357388413354076
 
  0.00000000E+00  0.00000000E+00  0.00000000E+00
  0.00000000E+00  0.00000000E+00  0.00000000E+00
  0.00000000E+00  0.00000000E+00  0.00000000E+00
  0.00000000E+00  0.00000000E+00  0.00000000E+00
