ClBrPt2                                 
   1.00000000000000     
     3.6733144276664906   -0.0363823218912399    0.0000000000000000
    -1.7869114962153896    3.1625997794893954    0.0000000000000000
     0.0000000000000000    0.0000000000000000   20.0000000000000000
   Cl   Br   Pt
     1     1     2
Direct
  0.0019861547713580  0.5022046100007219  0.1687271091350225
 -0.0023849318345500  0.4972248728237760  0.3853600977470778
  0.3327999800773545  0.1660338774031422  0.3102818446661350
  0.6677281929698631  0.8343802805703152  0.2358642442517742
 
  0.00000000E+00  0.00000000E+00  0.00000000E+00
  0.00000000E+00  0.00000000E+00  0.00000000E+00
  0.00000000E+00  0.00000000E+00  0.00000000E+00
  0.00000000E+00  0.00000000E+00  0.00000000E+00
