ClBrPt2                                 
   1.00000000000000     
     3.6920832892966708   -0.0366290279482198    0.0000000000000000
    -1.7960412486094459    3.2159358952652122    0.0000000000000000
     0.0000000000000000    0.0000000000000000   20.0000000000000000
   Cl   Br   Pt
     1     1     2
Direct
  0.0015610084822561  0.4999094619313580  0.1710427962129955
 -0.0018644968529814  0.5000165809983294  0.3830521454763985
  0.3329811788072041  0.1666465010453471  0.3097191026107054
  0.6674517055475470  0.8332710968229209  0.2364192514999102
 
  0.00000000E+00  0.00000000E+00  0.00000000E+00
  0.00000000E+00  0.00000000E+00  0.00000000E+00
  0.00000000E+00  0.00000000E+00  0.00000000E+00
  0.00000000E+00  0.00000000E+00  0.00000000E+00
