ClBrPt2                                 
   1.00000000000000     
     3.6738056492506477   -0.0366290279482198    0.0000000000000000
    -1.7960412486094459    3.2000154205361762    0.0000000000000000
     0.0000000000000000    0.0000000000000000   20.0000000000000000
   Cl   Br   Pt
     1     1     2
Direct
  0.0008177104844307  0.4999385867117785  0.1703087808543741
 -0.0009285006500954  0.4999862244281846  0.3838418138707682
  0.3331663713869402  0.1666330580226991  0.3099109917769623
  0.6670738147627497  0.8332857716352932  0.2361717092979050
 
  0.00000000E+00  0.00000000E+00  0.00000000E+00
  0.00000000E+00  0.00000000E+00  0.00000000E+00
  0.00000000E+00  0.00000000E+00  0.00000000E+00
  0.00000000E+00  0.00000000E+00  0.00000000E+00
