ClBrPt2                                 
   1.00000000000000     
     3.6738056492506476   -0.0366290279482198    0.0000000000000000
    -1.7960412486094459    3.2000154205361763    0.0000000000000000
     0.0000000000000000    0.0000000000000000   20.0000000000000000
   Cl   Br   Pt
     1     1     2
Direct
  0.0000326006845611  0.4999607471700001  0.1695613910309312
  0.0000322958911983  0.4999608139554844  0.3846391693352595
  0.3333655426450393  0.1666277092374890  0.3101067453499853
  0.6666989567632271  0.8332943704349818  0.2359259900838336
 
  0.00000000E+00  0.00000000E+00  0.00000000E+00
  0.00000000E+00  0.00000000E+00  0.00000000E+00
  0.00000000E+00  0.00000000E+00  0.00000000E+00
  0.00000000E+00  0.00000000E+00  0.00000000E+00
