ClBrPt2                                 
   1.00000000000000     
     3.6369449778876146   -0.0364049015762557    0.0000000000000000
    -1.7869114962153896    3.1645625598491902    0.0000000000000000
     0.0000000000000000    0.0000000000000000   20.0000000000000000
   Cl   Br   Pt
     1     1     2
Direct
  0.0000326253673578  0.4999620400094807  0.1683515384032100
  0.0000322544666669  0.4999598636811667  0.3857118459286341
  0.3333656027997530  0.1666271409614405  0.3104384941079399
  0.6666989133502477  0.8332945961458674  0.2357314173602256
 
  0.00000000E+00  0.00000000E+00  0.00000000E+00
  0.00000000E+00  0.00000000E+00  0.00000000E+00
  0.00000000E+00  0.00000000E+00  0.00000000E+00
  0.00000000E+00  0.00000000E+00  0.00000000E+00
