ClBrPt2                                 
   1.00000000000000     
     3.6551297027770526   -0.0363734142010133    0.0000000000000000
    -1.7869114962153896    3.1618254622473452    0.0000000000000000
     0.0000000000000000    0.0000000000000000   20.0000000000000000
   Cl   Br   Pt
     1     1     2
Direct
  0.0006090045208004  0.5005943661489038  0.1684765392070353
 -0.0007029503631028  0.4991503401820767  0.3855778192629395
  0.3330991709797232  0.1663149637928404  0.3104156606285024
  0.6671241708466046  0.8337839706741345  0.2357632767015323
 
  0.00000000E+00  0.00000000E+00  0.00000000E+00
  0.00000000E+00  0.00000000E+00  0.00000000E+00
  0.00000000E+00  0.00000000E+00  0.00000000E+00
  0.00000000E+00  0.00000000E+00  0.00000000E+00
