ClBrPt2                                 
   1.00000000000000     
     3.6423243400953247   -0.0364433516954215    0.0000000000000000
    -1.7895544958289957    3.1203863330831720    0.0000000000000000
     0.0000000000000000    0.0000000000000000   20.0000000000000000
   Cl   Br   Pt
     1     1     2
Direct
  0.0022829619047165  0.5043779445302912  0.1675992714652632
 -0.0025633468941429  0.4948623931509075  0.3864407052931799
  0.3327767379751403  0.1654742281324268  0.3106622881614078
  0.6676330429983115  0.8351290749843299  0.2355310308801587
 
  0.00000000E+00  0.00000000E+00  0.00000000E+00
  0.00000000E+00  0.00000000E+00  0.00000000E+00
  0.00000000E+00  0.00000000E+00  0.00000000E+00
  0.00000000E+00  0.00000000E+00  0.00000000E+00
